p edge 580 579
e 1 298
e 1 566
e 1 312
e 2 557
e 2 533
e 3 443
e 3 400
e 4 276
e 4 526
e 4 342
e 5 115
e 6 152
e 6 110
e 7 57
e 7 489
e 7 361
e 8 357
e 8 73
e 9 512
e 9 568
e 10 499
e 10 530
e 10 115
e 11 26
e 12 259
e 12 118
e 13 282
e 14 251
e 15 229
e 16 427
e 16 96
e 17 143
e 18 105
e 19 559
e 20 301
e 20 115
e 21 577
e 21 390
e 22 347
e 22 568
e 23 90
e 24 433
e 25 229
e 25 198
e 26 423
e 26 151
e 26 48
e 27 33
e 28 38
e 28 547
e 28 578
e 28 86
e 29 340
e 29 119
e 30 498
e 30 399
e 31 32
e 31 96
e 33 185
e 33 365
e 33 339
e 34 224
e 35 239
e 36 518
e 37 532
e 37 379
e 39 575
e 40 392
e 40 272
e 40 112
e 41 253
e 41 374
e 41 367
e 42 204
e 43 538
e 43 316
e 44 559
e 45 102
e 45 471
e 46 525
e 46 261
e 46 447
e 47 127
e 47 234
e 48 251
e 49 94
e 49 113
e 50 430
e 51 226
e 52 101
e 52 463
e 52 575
e 52 187
e 52 267
e 53 258
e 53 95
e 54 460
e 55 285
e 56 385
e 56 101
e 58 180
e 58 235
e 59 462
e 59 474
e 59 521
e 60 246
e 60 223
e 60 556
e 61 362
e 61 411
e 61 169
e 62 164
e 63 386
e 63 460
e 63 322
e 64 426
e 64 212
e 65 433
e 66 238
e 66 353
e 66 220
e 66 425
e 67 349
e 68 192
e 68 217
e 69 285
e 70 235
e 70 481
e 70 241
e 71 315
e 71 191
e 71 358
e 71 251
e 72 126
e 72 545
e 72 442
e 72 339
e 73 366
e 73 527
e 74 158
e 74 176
e 75 324
e 75 570
e 75 467
e 76 103
e 76 551
e 77 160
e 78 408
e 78 115
e 78 153
e 79 221
e 80 451
e 80 293
e 81 116
e 81 247
e 81 88
e 82 133
e 82 239
e 83 475
e 83 554
e 83 142
e 84 484
e 84 430
e 85 345
e 86 439
e 87 174
e 87 291
e 88 498
e 89 105
e 90 95
e 91 390
e 92 100
e 93 368
e 94 230
e 95 434
e 96 568
e 96 241
e 97 380
e 97 100
e 98 353
e 99 271
e 100 442
e 101 421
e 103 503
e 104 140
e 104 390
e 105 550
e 106 540
e 106 363
e 107 307
e 107 138
e 108 128
e 109 283
e 109 306
e 110 515
e 110 436
e 111 164
e 111 392
e 112 348
e 112 445
e 113 157
e 114 388
e 115 263
e 117 566
e 118 550
e 119 514
e 119 555
e 119 395
e 120 301
e 121 371
e 122 197
e 123 414
e 123 253
e 124 350
e 124 254
e 125 256
e 125 468
e 128 322
e 128 308
e 129 321
e 129 132
e 130 297
e 131 537
e 131 561
e 131 479
e 131 547
e 132 487
e 134 342
e 134 269
e 135 406
e 135 308
e 136 372
e 136 508
e 136 358
e 137 468
e 137 476
e 138 271
e 139 439
e 139 473
e 141 285
e 142 222
e 142 155
e 143 207
e 143 253
e 144 402
e 144 433
e 145 465
e 146 374
e 147 203
e 147 272
e 148 167
e 149 380
e 150 364
e 151 204
e 152 535
e 152 250
e 153 559
e 154 215
e 155 237
e 156 274
e 157 288
e 157 393
e 157 220
e 159 456
e 159 417
e 159 243
e 160 519
e 160 279
e 161 547
e 162 273
e 162 471
e 162 292
e 162 449
e 163 457
e 163 487
e 164 232
e 164 274
e 165 251
e 166 295
e 166 269
e 166 453
e 167 243
e 167 182
e 168 172
e 168 474
e 169 389
e 170 326
e 170 415
e 170 479
e 171 429
e 171 417
e 173 389
e 174 485
e 175 277
e 176 571
e 177 225
e 178 333
e 179 565
e 179 309
e 181 574
e 181 531
e 182 423
e 183 278
e 183 268
e 183 272
e 184 542
e 184 341
e 186 324
e 187 473
e 188 403
e 188 286
e 189 411
e 190 275
e 191 480
e 193 323
e 194 218
e 195 378
e 195 397
e 195 458
e 195 395
e 195 261
e 196 512
e 197 396
e 197 563
e 197 431
e 198 409
e 199 406
e 200 572
e 200 394
e 201 470
e 202 558
e 202 373
e 204 287
e 204 231
e 205 228
e 205 472
e 206 334
e 206 320
e 208 575
e 209 352
e 209 271
e 210 492
e 210 322
e 211 552
e 212 431
e 213 270
e 214 439
e 215 409
e 216 289
e 216 367
e 216 294
e 216 441
e 217 332
e 217 336
e 217 580
e 218 371
e 219 435
e 219 504
e 219 453
e 219 524
e 220 370
e 221 225
e 223 304
e 224 522
e 225 436
e 225 500
e 225 280
e 226 236
e 226 560
e 226 500
e 227 506
e 228 482
e 229 234
e 231 351
e 231 318
e 233 433
e 234 313
e 235 364
e 236 356
e 237 393
e 239 395
e 240 391
e 241 293
e 241 279
e 242 480
e 243 428
e 244 368
e 244 286
e 245 493
e 245 497
e 245 282
e 246 311
e 247 314
e 248 542
e 249 376
e 249 485
e 250 410
e 251 487
e 252 258
e 254 266
e 254 284
e 255 391
e 255 422
e 255 274
e 256 407
e 256 539
e 256 571
e 257 567
e 258 501
e 260 274
e 262 349
e 264 301
e 265 446
e 266 461
e 267 389
e 268 491
e 268 550
e 270 277
e 270 513
e 271 518
e 272 327
e 272 444
e 272 494
e 272 506
e 275 465
e 279 344
e 280 447
e 281 520
e 282 451
e 284 434
e 284 534
e 285 520
e 286 337
e 286 546
e 286 360
e 289 521
e 290 383
e 291 528
e 292 510
e 293 448
e 294 312
e 296 553
e 297 544
e 299 332
e 300 501
e 302 372
e 303 413
e 303 568
e 304 459
e 305 315
e 306 361
e 306 400
e 307 513
e 308 520
e 309 416
e 310 511
e 310 542
e 313 359
e 316 374
e 317 520
e 317 419
e 318 569
e 319 546
e 320 409
e 322 354
e 322 559
e 323 563
e 324 490
e 324 469
e 325 573
e 325 454
e 328 344
e 328 554
e 329 541
e 330 441
e 330 477
e 331 434
e 333 553
e 335 419
e 335 413
e 336 389
e 337 409
e 338 383
e 339 418
e 339 556
e 340 549
e 341 422
e 343 449
e 344 528
e 345 399
e 345 415
e 346 530
e 347 355
e 348 388
e 349 463
e 352 523
e 354 445
e 359 472
e 360 522
e 363 381
e 363 574
e 369 498
e 371 553
e 373 442
e 375 485
e 377 417
e 379 509
e 379 566
e 382 434
e 383 421
e 384 479
e 387 413
e 389 564
e 390 489
e 394 507
e 398 550
e 399 431
e 400 430
e 401 460
e 404 579
e 404 578
e 405 474
e 406 495
e 410 522
e 410 507
e 411 440
e 412 454
e 414 483
e 416 562
e 417 541
e 418 425
e 420 564
e 424 554
e 425 467
e 426 478
e 430 552
e 432 498
e 433 493
e 434 450
e 437 517
e 437 562
e 438 529
e 438 575
e 441 536
e 446 466
e 447 551
e 447 498
e 449 557
e 452 570
e 453 477
e 453 567
e 454 517
e 455 499
e 457 562
e 461 487
e 464 489
e 465 515
e 466 544
e 469 496
e 470 502
e 470 577
e 476 531
e 476 544
e 478 556
e 482 543
e 485 524
e 486 579
e 488 536
e 497 534
e 501 518
e 505 519
e 516 567
e 524 553
e 527 565
e 533 552
e 544 573
e 548 550
e 552 560
e 571 576
